
letting r = 10
letting n = 8

letting demand =
        [[0,1,1,1,0,0,0,0],
         [0,0,0,0,0,0,1,1],
         [0,0,0,1,0,1,0,0],
         [0,0,0,0,0,0,0,0],
         [0,0,0,0,0,1,1,0],
         [0,0,0,0,0,0,1,1],
         [0,0,0,0,0,0,0,0],
         [0,0,0,0,0,0,0,0]]


letting capacity_nodes be [1, 3, 1, 4, 4, 2, 3, 4, 2, 3]